p cnf 430 1488
-191 -55 0
-191 -144 0
-191 183 0
-191 13 0
-191 -129 0
191 55 144 -183 -13 129 0
-192 78 0
-192 130 0
-192 -184 0
-192 -14 0
-192 174 0
192 -78 -130 184 14 -174 0
-193 -108 0
-193 -181 0
-193 26 0
-193 142 0
-193 -25 0
193 108 181 -26 -142 25 0
-194 42 0
-194 -25 0
-194 152 0
-194 -34 0
-194 117 0
194 -42 25 -152 34 -117 0
-195 -8 0
-195 -67 0
-195 -161 0
-195 53 0
-195 187 0
195 8 67 161 -53 -187 0
191 192 193 194 195 0
-196 -36 0
-196 -96 0
-196 -47 0
-196 -167 0
-196 157 0
196 36 96 47 167 -157 0
-197 -90 0
-197 -36 0
-197 103 0
-197 -78 0
-197 102 0
197 90 36 -103 78 -102 0
-198 -77 0
-198 -9 0
-198 102 0
-198 -24 0
-198 -88 0
198 77 9 -102 24 88 0
-199 101 0
-199 144 0
-199 -142 0
-199 -11 0
-199 -67 0
199 -101 -144 142 11 67 0
-200 159 0
-200 -23 0
-200 128 0
-200 22 0
-200 -189 0
200 -159 23 -128 -22 189 0
196 197 198 199 200 0
-201 157 0
-201 -93 0
-201 -65 0
-201 185 0
-201 89 0
201 -157 93 65 -185 -89 0
-202 -175 0
-202 -118 0
-202 84 0
-202 -45 0
-202 112 0
202 175 118 -84 45 -112 0
-203 -120 0
-203 39 0
-203 -42 0
-203 142 0
-203 -63 0
203 120 -39 42 -142 63 0
-204 53 0
-204 23 0
-204 105 0
-204 99 0
-204 6 0
204 -53 -23 -105 -99 -6 0
-205 112 0
-205 -33 0
-205 97 0
-205 -81 0
-205 11 0
205 -112 33 -97 81 -11 0
201 202 203 204 205 0
-206 -97 0
-206 35 0
-206 -142 0
-206 87 0
-206 -141 0
206 97 -35 142 -87 141 0
-207 -159 0
-207 115 0
-207 -85 0
-207 -187 0
-207 -127 0
207 159 -115 85 187 127 0
-208 -158 0
-208 -74 0
-208 178 0
-208 37 0
-208 -72 0
208 158 74 -178 -37 72 0
-209 81 0
-209 114 0
-209 -118 0
-209 158 0
-209 57 0
209 -81 -114 118 -158 -57 0
-210 -137 0
-210 -62 0
-210 -50 0
-210 -103 0
-210 -52 0
210 137 62 50 103 52 0
206 207 208 209 210 0
-211 -136 0
-211 177 0
-211 -112 0
-211 -111 0
-211 184 0
211 136 -177 112 111 -184 0
-212 -57 0
-212 -121 0
-212 -66 0
-212 -171 0
-212 -27 0
212 57 121 66 171 27 0
-213 -128 0
-213 72 0
-213 -154 0
-213 -101 0
-213 -178 0
213 128 -72 154 101 178 0
-214 148 0
-214 -71 0
-214 -108 0
-214 -143 0
-214 17 0
214 -148 71 108 143 -17 0
-215 -131 0
-215 -123 0
-215 62 0
-215 -35 0
-215 117 0
215 131 123 -62 35 -117 0
211 212 213 214 215 0
-216 -89 0
-216 -114 0
-216 -26 0
-216 -158 0
-216 -177 0
216 89 114 26 158 177 0
-217 -1 0
-217 -100 0
-217 145 0
-217 -84 0
-217 144 0
217 1 100 -145 84 -144 0
-218 -12 0
-218 -160 0
-218 156 0
-218 -178 0
-218 -143 0
218 12 160 -156 178 143 0
-219 -185 0
-219 -14 0
-219 -84 0
-219 17 0
-219 131 0
219 185 14 84 -17 -131 0
-220 -164 0
-220 -24 0
-220 -38 0
-220 -95 0
-220 -179 0
220 164 24 38 95 179 0
216 217 218 219 220 0
-221 170 0
-221 90 0
-221 59 0
-221 -10 0
-221 24 0
221 -170 -90 -59 10 -24 0
-222 -73 0
-222 8 0
-222 -154 0
-222 -182 0
-222 66 0
222 73 -8 154 182 -66 0
-223 80 0
-223 10 0
-223 -20 0
-223 7 0
-223 127 0
223 -80 -10 20 -7 -127 0
-224 29 0
-224 -119 0
-224 102 0
-224 -134 0
-224 -73 0
224 -29 119 -102 134 73 0
-225 62 0
-225 -32 0
-225 161 0
-225 -89 0
-225 128 0
225 -62 32 -161 89 -128 0
221 222 223 224 225 0
-226 178 0
-226 7 0
-226 130 0
-226 -160 0
-226 -2 0
226 -178 -7 -130 160 2 0
-227 183 0
-227 54 0
-227 72 0
-227 31 0
-227 148 0
227 -183 -54 -72 -31 -148 0
-228 154 0
-228 -32 0
-228 -108 0
-228 -19 0
-228 92 0
228 -154 32 108 19 -92 0
-229 -76 0
-229 -122 0
-229 171 0
-229 -164 0
-229 113 0
229 76 122 -171 164 -113 0
-230 78 0
-230 -80 0
-230 77 0
-230 60 0
-230 -138 0
230 -78 80 -77 -60 138 0
226 227 228 229 230 0
-231 -46 0
-231 -74 0
-231 -118 0
-231 155 0
-231 35 0
231 46 74 118 -155 -35 0
-232 -186 0
-232 24 0
-232 68 0
-232 -81 0
-232 139 0
232 186 -24 -68 81 -139 0
-233 118 0
-233 55 0
-233 -20 0
-233 129 0
-233 -171 0
233 -118 -55 20 -129 171 0
-234 145 0
-234 -141 0
-234 -109 0
-234 -18 0
-234 -94 0
234 -145 141 109 18 94 0
-235 -48 0
-235 -33 0
-235 9 0
-235 -59 0
-235 -52 0
235 48 33 -9 59 52 0
231 232 233 234 235 0
-236 -137 0
-236 -52 0
-236 -35 0
-236 -177 0
-236 -147 0
236 137 52 35 177 147 0
-237 -181 0
-237 66 0
-237 185 0
-237 -184 0
-237 154 0
237 181 -66 -185 184 -154 0
-238 -43 0
-238 -34 0
-238 65 0
-238 30 0
-238 -156 0
238 43 34 -65 -30 156 0
-239 -123 0
-239 183 0
-239 -17 0
-239 47 0
-239 -150 0
239 123 -183 17 -47 150 0
-240 -30 0
-240 79 0
-240 -77 0
-240 -76 0
-240 -132 0
240 30 -79 77 76 132 0
236 237 238 239 240 0
-241 -113 0
-241 4 0
-241 48 0
-241 125 0
-241 -18 0
241 113 -4 -48 -125 18 0
-242 -53 0
-242 128 0
-242 4 0
-242 99 0
-242 125 0
242 53 -128 -4 -99 -125 0
-243 -6 0
-243 182 0
-243 -119 0
-243 -135 0
-243 76 0
243 6 -182 119 135 -76 0
-244 -123 0
-244 74 0
-244 -17 0
-244 -92 0
-244 -139 0
244 123 -74 17 92 139 0
-245 -99 0
-245 14 0
-245 66 0
-245 136 0
-245 -25 0
245 99 -14 -66 -136 25 0
241 242 243 244 245 0
-246 -97 0
-246 163 0
-246 71 0
-246 15 0
-246 -101 0
246 97 -163 -71 -15 101 0
-247 53 0
-247 -107 0
-247 70 0
-247 71 0
-247 179 0
247 -53 107 -70 -71 -179 0
-248 76 0
-248 -71 0
-248 127 0
-248 49 0
-248 -51 0
248 -76 71 -127 -49 51 0
-249 187 0
-249 118 0
-249 25 0
-249 -141 0
-249 16 0
249 -187 -118 -25 141 -16 0
-250 -180 0
-250 -116 0
-250 -80 0
-250 74 0
-250 -69 0
250 180 116 80 -74 69 0
246 247 248 249 250 0
-251 151 0
-251 52 0
-251 -27 0
-251 139 0
-251 90 0
251 -151 -52 27 -139 -90 0
-252 56 0
-252 50 0
-252 113 0
-252 -49 0
-252 -81 0
252 -56 -50 -113 49 81 0
-253 138 0
-253 -15 0
-253 112 0
-253 80 0
-253 -24 0
253 -138 15 -112 -80 24 0
-254 180 0
-254 -168 0
-254 153 0
-254 -99 0
-254 13 0
254 -180 168 -153 99 -13 0
-255 -72 0
-255 -66 0
-255 -147 0
-255 139 0
-255 -31 0
255 72 66 147 -139 31 0
251 252 253 254 255 0
-256 -63 0
-256 88 0
-256 89 0
-256 -113 0
-256 15 0
256 63 -88 -89 113 -15 0
-257 100 0
-257 -40 0
-257 88 0
-257 157 0
-257 -130 0
257 -100 40 -88 -157 130 0
-258 -140 0
-258 -53 0
-258 131 0
-258 -14 0
-258 111 0
258 140 53 -131 14 -111 0
-259 33 0
-259 103 0
-259 -74 0
-259 -99 0
-259 -179 0
259 -33 -103 74 99 179 0
-260 13 0
-260 80 0
-260 86 0
-260 -190 0
-260 20 0
260 -13 -80 -86 190 -20 0
256 257 258 259 260 0
-261 -102 0
-261 83 0
-261 4 0
-261 109 0
-261 -8 0
261 102 -83 -4 -109 8 0
-262 120 0
-262 162 0
-262 -137 0
-262 -72 0
-262 -12 0
262 -120 -162 137 72 12 0
-263 -29 0
-263 84 0
-263 -42 0
-263 54 0
-263 27 0
263 29 -84 42 -54 -27 0
-264 -87 0
-264 91 0
-264 -156 0
-264 38 0
-264 -42 0
264 87 -91 156 -38 42 0
-265 -161 0
-265 35 0
-265 48 0
-265 91 0
-265 71 0
265 161 -35 -48 -91 -71 0
261 262 263 264 265 0
-266 153 0
-266 -156 0
-266 18 0
-266 -13 0
-266 -63 0
266 -153 156 -18 13 63 0
-267 5 0
-267 70 0
-267 -18 0
-267 162 0
-267 -11 0
267 -5 -70 18 -162 11 0
-268 -97 0
-268 73 0
-268 -153 0
-268 -81 0
-268 -76 0
268 97 -73 153 81 76 0
-269 103 0
-269 -85 0
-269 51 0
-269 109 0
-269 182 0
269 -103 85 -51 -109 -182 0
-270 65 0
-270 185 0
-270 -173 0
-270 -161 0
-270 -74 0
270 -65 -185 173 161 74 0
266 267 268 269 270 0
-271 4 0
-271 -26 0
-271 74 0
-271 -114 0
-271 -137 0
271 -4 26 -74 114 137 0
-272 42 0
-272 132 0
-272 74 0
-272 -75 0
-272 134 0
272 -42 -132 -74 75 -134 0
-273 -169 0
-273 -178 0
-273 152 0
-273 172 0
-273 8 0
273 169 178 -152 -172 -8 0
-274 102 0
-274 -40 0
-274 31 0
-274 -109 0
-274 175 0
274 -102 40 -31 109 -175 0
-275 187 0
-275 93 0
-275 -87 0
-275 -181 0
-275 -84 0
275 -187 -93 87 181 84 0
271 272 273 274 275 0
-276 77 0
-276 -163 0
-276 -53 0
-276 -167 0
-276 73 0
276 -77 163 53 167 -73 0
-277 -142 0
-277 -37 0
-277 -53 0
-277 -24 0
-277 186 0
277 142 37 53 24 -186 0
-278 59 0
-278 -168 0
-278 -6 0
-278 48 0
-278 47 0
278 -59 168 6 -48 -47 0
-279 -135 0
-279 -176 0
-279 -87 0
-279 -160 0
-279 -144 0
279 135 176 87 160 144 0
-280 8 0
-280 28 0
-280 -27 0
-280 -134 0
-280 159 0
280 -8 -28 27 134 -159 0
276 277 278 279 280 0
-281 -109 0
-281 -124 0
-281 159 0
-281 1 0
-281 -129 0
281 109 124 -159 -1 129 0
-282 -77 0
-282 -1 0
-282 120 0
-282 4 0
-282 6 0
282 77 1 -120 -4 -6 0
-283 128 0
-283 -156 0
-283 150 0
-283 -8 0
-283 162 0
283 -128 156 -150 8 -162 0
-284 73 0
-284 -121 0
-284 -140 0
-284 -37 0
-284 87 0
284 -73 121 140 37 -87 0
-285 79 0
-285 76 0
-285 83 0
-285 -50 0
-285 -126 0
285 -79 -76 -83 50 126 0
281 282 283 284 285 0
-286 94 0
-286 135 0
-286 12 0
-286 -178 0
-286 10 0
286 -94 -135 -12 178 -10 0
-287 -83 0
-287 -137 0
-287 -131 0
-287 -173 0
-287 -24 0
287 83 137 131 173 24 0
-288 -109 0
-288 -112 0
-288 -144 0
-288 -172 0
-288 87 0
288 109 112 144 172 -87 0
-289 -126 0
-289 136 0
-289 -84 0
-289 -77 0
-289 19 0
289 126 -136 84 77 -19 0
-290 105 0
-290 67 0
-290 -151 0
-290 -53 0
-290 148 0
290 -105 -67 151 53 -148 0
286 287 288 289 290 0
-291 127 0
-291 -38 0
-291 -96 0
-291 1 0
-291 -15 0
291 -127 38 96 -1 15 0
-292 132 0
-292 57 0
-292 18 0
-292 -175 0
-292 -178 0
292 -132 -57 -18 175 178 0
-293 -13 0
-293 14 0
-293 41 0
-293 -42 0
-293 17 0
293 13 -14 -41 42 -17 0
-294 -161 0
-294 168 0
-294 -92 0
-294 147 0
-294 52 0
294 161 -168 92 -147 -52 0
-295 28 0
-295 -26 0
-295 -51 0
-295 132 0
-295 22 0
295 -28 26 51 -132 -22 0
291 292 293 294 295 0
-296 -97 0
-296 -174 0
-296 3 0
-296 -115 0
-296 47 0
296 97 174 -3 115 -47 0
-297 -43 0
-297 -36 0
-297 -100 0
-297 166 0
-297 -122 0
297 43 36 100 -166 122 0
-298 155 0
-298 -126 0
-298 -183 0
-298 -13 0
-298 -84 0
298 -155 126 183 13 84 0
-299 97 0
-299 84 0
-299 -71 0
-299 -34 0
-299 -102 0
299 -97 -84 71 34 102 0
-300 -41 0
-300 121 0
-300 -56 0
-300 55 0
-300 105 0
300 41 -121 56 -55 -105 0
296 297 298 299 300 0
-301 -134 0
-301 -182 0
-301 -150 0
-301 141 0
-301 -102 0
301 134 182 150 -141 102 0
-302 -122 0
-302 -60 0
-302 -9 0
-302 -163 0
-302 -63 0
302 122 60 9 163 63 0
-303 156 0
-303 139 0
-303 171 0
-303 -124 0
-303 129 0
303 -156 -139 -171 124 -129 0
-304 20 0
-304 177 0
-304 -141 0
-304 -76 0
-304 -115 0
304 -20 -177 141 76 115 0
-305 39 0
-305 36 0
-305 -117 0
-305 -43 0
-305 -143 0
305 -39 -36 117 43 143 0
301 302 303 304 305 0
-306 86 0
-306 2 0
-306 4 0
-306 14 0
-306 -99 0
306 -86 -2 -4 -14 99 0
-307 190 0
-307 145 0
-307 90 0
-307 -143 0
-307 37 0
307 -190 -145 -90 143 -37 0
-308 20 0
-308 -116 0
-308 -133 0
-308 115 0
-308 -7 0
308 -20 116 133 -115 7 0
-309 -139 0
-309 126 0
-309 26 0
-309 136 0
-309 -143 0
309 139 -126 -26 -136 143 0
-310 -131 0
-310 155 0
-310 149 0
-310 78 0
-310 -107 0
310 131 -155 -149 -78 107 0
306 307 308 309 310 0
-311 164 0
-311 -27 0
-311 -92 0
-311 183 0
-311 112 0
311 -164 27 92 -183 -112 0
-312 -122 0
-312 -132 0
-312 -121 0
-312 186 0
-312 -38 0
312 122 132 121 -186 38 0
-313 -150 0
-313 73 0
-313 77 0
-313 60 0
-313 81 0
313 150 -73 -77 -60 -81 0
-314 -111 0
-314 -120 0
-314 -67 0
-314 184 0
-314 100 0
314 111 120 67 -184 -100 0
-315 14 0
-315 127 0
-315 65 0
-315 167 0
-315 -9 0
315 -14 -127 -65 -167 9 0
311 312 313 314 315 0
-316 113 0
-316 -86 0
-316 -27 0
-316 80 0
-316 -152 0
316 -113 86 27 -80 152 0
-317 110 0
-317 -120 0
-317 37 0
-317 -97 0
-317 -138 0
317 -110 120 -37 97 138 0
-318 106 0
-318 -10 0
-318 -12 0
-318 90 0
-318 84 0
318 -106 10 12 -90 -84 0
-319 -75 0
-319 -86 0
-319 -148 0
-319 182 0
-319 55 0
319 75 86 148 -182 -55 0
-320 130 0
-320 -114 0
-320 172 0
-320 171 0
-320 190 0
320 -130 114 -172 -171 -190 0
316 317 318 319 320 0
-321 -175 0
-321 81 0
-321 74 0
-321 -92 0
-321 -134 0
321 175 -81 -74 92 134 0
-322 116 0
-322 -176 0
-322 92 0
-322 -77 0
-322 78 0
322 -116 176 -92 77 -78 0
-323 -179 0
-323 165 0
-323 -100 0
-323 108 0
-323 -9 0
323 179 -165 100 -108 9 0
-324 50 0
-324 -148 0
-324 -14 0
-324 -90 0
-324 83 0
324 -50 148 14 90 -83 0
-325 -84 0
-325 85 0
-325 69 0
-325 -110 0
-325 -95 0
325 84 -85 -69 110 95 0
321 322 323 324 325 0
-326 182 0
-326 -155 0
-326 -9 0
-326 -4 0
-326 74 0
326 -182 155 9 4 -74 0
-327 83 0
-327 -140 0
-327 -80 0
-327 7 0
-327 -157 0
327 -83 140 80 -7 157 0
-328 -109 0
-328 -9 0
-328 41 0
-328 -116 0
-328 139 0
328 109 9 -41 116 -139 0
-329 33 0
-329 69 0
-329 -31 0
-329 70 0
-329 190 0
329 -33 -69 31 -70 -190 0
-330 155 0
-330 131 0
-330 -61 0
-330 58 0
-330 -132 0
330 -155 -131 61 -58 132 0
326 327 328 329 330 0
-331 27 0
-331 58 0
-331 -175 0
-331 -69 0
-331 15 0
331 -27 -58 175 69 -15 0
-332 -73 0
-332 118 0
-332 -115 0
-332 -103 0
-332 172 0
332 73 -118 115 103 -172 0
-333 -98 0
-333 -56 0
-333 128 0
-333 -79 0
-333 -74 0
333 98 56 -128 79 74 0
-334 175 0
-334 130 0
-334 182 0
-334 73 0
-334 53 0
334 -175 -130 -182 -73 -53 0
-335 -33 0
-335 29 0
-335 114 0
-335 -118 0
-335 -137 0
335 33 -29 -114 118 137 0
331 332 333 334 335 0
-336 -92 0
-336 57 0
-336 89 0
-336 -59 0
-336 -75 0
336 92 -57 -89 59 75 0
-337 -180 0
-337 -124 0
-337 105 0
-337 -46 0
-337 -26 0
337 180 124 -105 46 26 0
-338 -119 0
-338 42 0
-338 -76 0
-338 -134 0
-338 165 0
338 119 -42 76 134 -165 0
-339 40 0
-339 -49 0
-339 129 0
-339 -80 0
-339 -71 0
339 -40 49 -129 80 71 0
-340 -23 0
-340 -129 0
-340 103 0
-340 -100 0
-340 -76 0
340 23 129 -103 100 76 0
336 337 338 339 340 0
-341 146 0
-341 162 0
-341 -140 0
-341 -144 0
-341 -177 0
341 -146 -162 140 144 177 0
-342 50 0
-342 46 0
-342 49 0
-342 -118 0
-342 116 0
342 -50 -46 -49 118 -116 0
-343 -145 0
-343 181 0
-343 60 0
-343 105 0
-343 -11 0
343 145 -181 -60 -105 11 0
-344 -105 0
-344 98 0
-344 180 0
-344 -101 0
-344 94 0
344 105 -98 -180 101 -94 0
-345 125 0
-345 9 0
-345 -75 0
-345 108 0
-345 17 0
345 -125 -9 75 -108 -17 0
341 342 343 344 345 0
-346 -131 0
-346 142 0
-346 -166 0
-346 -26 0
-346 102 0
346 131 -142 166 26 -102 0
-347 -169 0
-347 -30 0
-347 6 0
-347 -52 0
-347 -122 0
347 169 30 -6 52 122 0
-348 -150 0
-348 -139 0
-348 164 0
-348 -100 0
-348 3 0
348 150 139 -164 100 -3 0
-349 131 0
-349 183 0
-349 123 0
-349 -181 0
-349 -80 0
349 -131 -183 -123 181 80 0
-350 -48 0
-350 88 0
-350 172 0
-350 -61 0
-350 24 0
350 48 -88 -172 61 -24 0
346 347 348 349 350 0
-351 106 0
-351 -166 0
-351 22 0
-351 -157 0
-351 11 0
351 -106 166 -22 157 -11 0
-352 -12 0
-352 -175 0
-352 -162 0
-352 -7 0
-352 -92 0
352 12 175 162 7 92 0
-353 -80 0
-353 182 0
-353 -50 0
-353 188 0
-353 -158 0
353 80 -182 50 -188 158 0
-354 -188 0
-354 172 0
-354 25 0
-354 -124 0
-354 166 0
354 188 -172 -25 124 -166 0
-355 184 0
-355 20 0
-355 68 0
-355 172 0
-355 -160 0
355 -184 -20 -68 -172 160 0
351 352 353 354 355 0
-356 -7 0
-356 98 0
-356 177 0
-356 -6 0
-356 168 0
356 7 -98 -177 6 -168 0
-357 -27 0
-357 -162 0
-357 -172 0
-357 86 0
-357 44 0
357 27 162 172 -86 -44 0
-358 -9 0
-358 12 0
-358 100 0
-358 174 0
-358 -75 0
358 9 -12 -100 -174 75 0
-359 84 0
-359 8 0
-359 -135 0
-359 169 0
-359 -2 0
359 -84 -8 135 -169 2 0
-360 117 0
-360 -128 0
-360 -65 0
-360 122 0
-360 123 0
360 -117 128 65 -122 -123 0
356 357 358 359 360 0
-361 169 0
-361 -104 0
-361 88 0
-361 -139 0
-361 131 0
361 -169 104 -88 139 -131 0
-362 123 0
-362 151 0
-362 -29 0
-362 135 0
-362 -121 0
362 -123 -151 29 -135 121 0
-363 181 0
-363 72 0
-363 117 0
-363 -80 0
-363 169 0
363 -181 -72 -117 80 -169 0
-364 21 0
-364 -24 0
-364 58 0
-364 140 0
-364 -13 0
364 -21 24 -58 -140 13 0
-365 -129 0
-365 -41 0
-365 145 0
-365 72 0
-365 -173 0
365 129 41 -145 -72 173 0
361 362 363 364 365 0
-366 -99 0
-366 -8 0
-366 -12 0
-366 108 0
-366 -27 0
366 99 8 12 -108 27 0
-367 89 0
-367 98 0
-367 138 0
-367 -156 0
-367 61 0
367 -89 -98 -138 156 -61 0
-368 -142 0
-368 6 0
-368 -100 0
-368 49 0
-368 -69 0
368 142 -6 100 -49 69 0
-369 -157 0
-369 154 0
-369 92 0
-369 -70 0
-369 -175 0
369 157 -154 -92 70 175 0
-370 -147 0
-370 -114 0
-370 85 0
-370 -66 0
-370 -27 0
370 147 114 -85 66 27 0
366 367 368 369 370 0
-371 91 0
-371 -176 0
-371 76 0
-371 -104 0
-371 -66 0
371 -91 176 -76 104 66 0
-372 17 0
-372 -126 0
-372 -188 0
-372 131 0
-372 -86 0
372 -17 126 188 -131 86 0
-373 -52 0
-373 49 0
-373 -182 0
-373 -164 0
-373 176 0
373 52 -49 182 164 -176 0
-374 -20 0
-374 128 0
-374 -32 0
-374 -43 0
-374 149 0
374 20 -128 32 43 -149 0
-375 126 0
-375 -124 0
-375 -77 0
-375 -161 0
-375 65 0
375 -126 124 77 161 -65 0
371 372 373 374 375 0
-376 -48 0
-376 -84 0
-376 -135 0
-376 -47 0
-376 70 0
376 48 84 135 47 -70 0
-377 -83 0
-377 -137 0
-377 -82 0
-377 -154 0
-377 87 0
377 83 137 82 154 -87 0
-378 65 0
-378 -106 0
-378 109 0
-378 11 0
-378 -46 0
378 -65 106 -109 -11 46 0
-379 -105 0
-379 4 0
-379 -7 0
-379 -74 0
-379 -26 0
379 105 -4 7 74 26 0
-380 -66 0
-380 12 0
-380 88 0
-380 -123 0
-380 184 0
380 66 -12 -88 123 -184 0
376 377 378 379 380 0
-381 21 0
-381 62 0
-381 -17 0
-381 -3 0
-381 -120 0
381 -21 -62 17 3 120 0
-382 39 0
-382 169 0
-382 122 0
-382 -167 0
-382 -57 0
382 -39 -169 -122 167 57 0
-383 177 0
-383 -73 0
-383 -158 0
-383 179 0
-383 -144 0
383 -177 73 158 -179 144 0
-384 -85 0
-384 -67 0
-384 -102 0
-384 89 0
-384 26 0
384 85 67 102 -89 -26 0
-385 -181 0
-385 138 0
-385 -103 0
-385 -49 0
-385 34 0
385 181 -138 103 49 -34 0
381 382 383 384 385 0
-386 26 0
-386 -186 0
-386 -172 0
-386 -88 0
-386 -135 0
386 -26 186 172 88 135 0
-387 116 0
-387 -175 0
-387 124 0
-387 -23 0
-387 -101 0
387 -116 175 -124 23 101 0
-388 120 0
-388 147 0
-388 -15 0
-388 -136 0
-388 107 0
388 -120 -147 15 136 -107 0
-389 20 0
-389 -151 0
-389 -172 0
-389 115 0
-389 -32 0
389 -20 151 172 -115 32 0
-390 -184 0
-390 -143 0
-390 165 0
-390 33 0
-390 -24 0
390 184 143 -165 -33 24 0
386 387 388 389 390 0
-391 -112 0
-391 93 0
-391 -88 0
-391 44 0
-391 77 0
391 112 -93 88 -44 -77 0
-392 86 0
-392 129 0
-392 -62 0
-392 122 0
-392 126 0
392 -86 -129 62 -122 -126 0
-393 -81 0
-393 26 0
-393 114 0
-393 -84 0
-393 -16 0
393 81 -26 -114 84 16 0
-394 108 0
-394 -146 0
-394 3 0
-394 -154 0
-394 -162 0
394 -108 146 -3 154 162 0
-395 176 0
-395 164 0
-395 17 0
-395 -97 0
-395 43 0
395 -176 -164 -17 97 -43 0
391 392 393 394 395 0
-396 181 0
-396 112 0
-396 -71 0
-396 183 0
-396 -28 0
396 -181 -112 71 -183 28 0
-397 133 0
-397 139 0
-397 -94 0
-397 -178 0
-397 180 0
397 -133 -139 94 178 -180 0
-398 113 0
-398 30 0
-398 -132 0
-398 -174 0
-398 168 0
398 -113 -30 132 174 -168 0
-399 -130 0
-399 -119 0
-399 87 0
-399 -137 0
-399 82 0
399 130 119 -87 137 -82 0
-400 72 0
-400 142 0
-400 -56 0
-400 6 0
-400 78 0
400 -72 -142 56 -6 -78 0
396 397 398 399 400 0
-401 -103 0
-401 -159 0
-401 36 0
-401 14 0
-401 141 0
401 103 159 -36 -14 -141 0
-402 -153 0
-402 157 0
-402 79 0
-402 190 0
-402 -104 0
402 153 -157 -79 -190 104 0
-403 -113 0
-403 -74 0
-403 -12 0
-403 141 0
-403 67 0
403 113 74 12 -141 -67 0
-404 -160 0
-404 3 0
-404 -32 0
-404 97 0
-404 145 0
404 160 -3 32 -97 -145 0
-405 8 0
-405 -37 0
-405 159 0
-405 -3 0
-405 -22 0
405 -8 37 -159 3 22 0
401 402 403 404 405 0
-406 -77 0
-406 174 0
-406 179 0
-406 68 0
-406 -173 0
406 77 -174 -179 -68 173 0
-407 -122 0
-407 -20 0
-407 -100 0
-407 -99 0
-407 -14 0
407 122 20 100 99 14 0
-408 -111 0
-408 -149 0
-408 31 0
-408 3 0
-408 121 0
408 111 149 -31 -3 -121 0
-409 -73 0
-409 30 0
-409 3 0
-409 -145 0
-409 -170 0
409 73 -30 -3 145 170 0
-410 40 0
-410 149 0
-410 -50 0
-410 150 0
-410 -103 0
410 -40 -149 50 -150 103 0
406 407 408 409 410 0
-411 -103 0
-411 183 0
-411 -51 0
-411 110 0
-411 74 0
411 103 -183 51 -110 -74 0
-412 -99 0
-412 81 0
-412 78 0
-412 -175 0
-412 95 0
412 99 -81 -78 175 -95 0
-413 -30 0
-413 -41 0
-413 17 0
-413 -20 0
-413 51 0
413 30 41 -17 20 -51 0
-414 129 0
-414 84 0
-414 143 0
-414 22 0
-414 99 0
414 -129 -84 -143 -22 -99 0
-415 43 0
-415 180 0
-415 84 0
-415 2 0
-415 -93 0
415 -43 -180 -84 -2 93 0
411 412 413 414 415 0
-416 165 0
-416 -158 0
-416 -181 0
-416 35 0
-416 -45 0
416 -165 158 181 -35 45 0
-417 -43 0
-417 84 0
-417 74 0
-417 -107 0
-417 -136 0
417 43 -84 -74 107 136 0
-418 -80 0
-418 168 0
-418 167 0
-418 11 0
-418 7 0
418 80 -168 -167 -11 -7 0
-419 86 0
-419 -102 0
-419 74 0
-419 -149 0
-419 105 0
419 -86 102 -74 149 -105 0
-420 169 0
-420 115 0
-420 -20 0
-420 -162 0
-420 137 0
420 -169 -115 20 162 -137 0
416 417 418 419 420 0
-421 -56 0
-421 40 0
-421 -60 0
-421 -170 0
-421 54 0
421 56 -40 60 170 -54 0
-422 -54 0
-422 -51 0
-422 45 0
-422 73 0
-422 48 0
422 54 51 -45 -73 -48 0
-423 -15 0
-423 -80 0
-423 -37 0
-423 60 0
-423 -97 0
423 15 80 37 -60 97 0
-424 79 0
-424 72 0
-424 106 0
-424 152 0
-424 114 0
424 -79 -72 -106 -152 -114 0
-425 -153 0
-425 -144 0
-425 -88 0
-425 -31 0
-425 43 0
425 153 144 88 31 -43 0
421 422 423 424 425 0
-426 -57 0
-426 79 0
-426 94 0
-426 -141 0
-426 -115 0
426 57 -79 -94 141 115 0
-427 14 0
-427 -55 0
-427 84 0
-427 -141 0
-427 10 0
427 -14 55 -84 141 -10 0
-428 -112 0
-428 -81 0
-428 -131 0
-428 71 0
-428 -96 0
428 112 81 131 -71 96 0
-429 80 0
-429 -84 0
-429 31 0
-429 -157 0
-429 -162 0
429 -80 84 -31 157 162 0
-430 36 0
-430 -71 0
-430 157 0
-430 -189 0
-430 94 0
430 -36 71 -157 189 -94 0
426 427 428 429 430 0
